5 5 2 10
1 3 14 1 19 
4.05 4.59 0.26 7 6.34 
2.14 1.53 7.73 4.17 5.3 
4 4 4 4 4 
1.62 7.7 6.05 4.48 7.33 
5.13 0.1 1.52 7.89 7.52 
1 1 1 1 1 
1 1 1 1 1 
1 1 1 1 1 
1 1 1 1 1 
1 1 1 1 1 
0.01 0.01 0.01 0.01 0.01 
0.02 0.02 0.02 0.02 0.02 
0.03 0.03 0.03 0.03 0.03 
0.5 0.5 0.5 0.5 0.5 
1 1 1 1 1 
